NAME : XML100_2175_10
DIMENSION : 101
NB_CLUSTERS : 31
CLUSTERING_ALG : KMeans
CLUSTERING_PARAMS : k(34)
CLUSTERS
1 0
2 39 45 50 52
3 5 7 15 60
4 12 41 44 98
5 17 29 36 63 71
6 2 27 56 64 87
7 66 79
8 25 47 94
9 33 43
10 10 19 49 68
11 54 57 81
12 32 55 75
13 13 80 95 100
14 6 70 93
15 1 11 23 84
16 35 46
17 21 37 88
18 24 92
19 26 67
20 16 18 61 78 83
21 31 77 97 99
22 34 38 65 76 91
23 74 82
24 14 22 28
25 48 72 73 90
26 3 9 20 51 62
27 4 30 58 59
28 53 85
29 8 69
30 89 96
31 40 42 86
EOF